% seed = 5770462

mint = 49;
% maxt = 102;

nActs = 22;
dur = [0,9,1,8,10,5,2,7,1,1,5,2,10,6,7,2,7,4,4,1,10,0];

nSkills = 4;
sreq = [| 0,0,0,0,
	| 0,3,0,3,
	| 1,1,0,1,
	| 1,3,3,3,
	| 2,0,2,1,
	| 0,3,0,3,
	| 1,0,3,2,
	| 1,2,3,2,
	| 0,3,0,2,
	| 2,2,0,3,
	| 1,1,1,2,
	| 0,0,3,2,
	| 2,3,1,0,
	| 2,2,1,1,
	| 2,3,2,1,
	| 1,1,1,1,
	| 0,3,2,2,
	| 0,2,3,2,
	| 0,3,0,3,
	| 2,3,0,0,
	| 2,1,2,0,
	| 0,0,0,0, |];

nResources = 10;
mastery = [| true,true,true,false,
	| false,true,true,true,
	| false,false,true,false,
	| false,false,true,false,
	| true,true,true,false,
	| false,true,false,false,
	| false,false,true,false,
	| false,false,false,true,
	| false,true,false,false,
	| false,true,true,true, |];

nPrecs = 37;
pred = [1,1,1,2,2,3,3,3,4,4,4,5,6,6,7,7,8,8,8,9,9,10,10,11,12,12,13,14,15,15,15,16,17,18,19,20,21];
succ = [2,3,4,19,5,10,14,8,17,21,7,6,10,12,9,8,18,13,16,10,19,11,16,13,13,14,20,15,17,21,16,20,20,19,22,22,22];

nUnrels = 86;
unpred = [2,2,2,2,2,2,3,3,3,3,3,3,4,4,4,4,4,5,5,5,5,5,6,6,6,6,6,7,7,7,7,7,8,8,8,8,8,8,8,8,9,9,9,9,9,9,10,10,10,10,10,10,10,11,11,11,11,11,11,11,11,12,12,13,13,13,13,13,13,13,14,14,15,15,16,16,16,16,17,17,17,18,18,19,19,20];
unsucc = [3,4,7,8,9,18,4,5,6,7,9,12,5,6,12,14,15,7,8,9,18,19,7,8,9,18,19,12,14,15,17,21,9,10,11,12,14,15,17,21,12,14,15,17,18,21,12,14,15,17,18,19,21,12,14,15,16,17,18,19,21,18,19,14,15,16,17,18,19,21,18,19,18,19,17,18,19,21,18,19,21,20,21,20,21,21];

USEFUL_RES = [{},
	{1,2,5,6,8,9,10},
	{1,2,5,6,8,9,10},
	{1,2,3,4,5,6,7,8,9,10},
	{1,2,3,4,5,7,8,10},
	{1,2,5,6,8,9,10},
	{1,2,3,4,5,7,8,10},
	{1,2,3,4,5,6,7,8,9,10},
	{1,2,5,6,8,9,10},
	{1,2,5,6,8,9,10},
	{1,2,3,4,5,6,7,8,9,10},
	{1,2,3,4,5,7,8,10},
	{1,2,3,4,5,6,7,9,10},
	{1,2,3,4,5,6,7,8,9,10},
	{1,2,3,4,5,6,7,8,9,10},
	{1,2,3,4,5,6,7,8,9,10},
	{1,2,3,4,5,6,7,8,9,10},
	{1,2,3,4,5,6,7,8,9,10},
	{1,2,5,6,8,9,10},
	{1,2,5,6,9,10},
	{1,2,3,4,5,6,7,9,10},
	{}];

POTENTIAL_ACT = [{2,3,4,5,6,7,8,9,10,11,12,13,14,15,16,17,18,19,20,21},
	{2,3,4,5,6,7,8,9,10,11,12,13,14,15,16,17,18,19,20,21},
	{4,5,7,8,11,12,13,14,15,16,17,18,21},
	{4,5,7,8,11,12,13,14,15,16,17,18,21},
	{2,3,4,5,6,7,8,9,10,11,12,13,14,15,16,17,18,19,20,21},
	{2,3,4,6,8,9,10,11,13,14,15,16,17,18,19,20,21},
	{4,5,7,8,11,12,13,14,15,16,17,18,21},
	{2,3,4,5,6,7,8,9,10,11,12,14,15,16,17,18,19},
	{2,3,4,6,8,9,10,11,13,14,15,16,17,18,19,20,21},
	{2,3,4,5,6,7,8,9,10,11,12,13,14,15,16,17,18,19,20,21}];
